Maximize
 obj: 2xe + 0.6xj + 1.75xs
Subject To
 c1: xe -xes -xem = 0
 c2: xj -xjs -xjm = 0
 c3: xe <= 800 000
 c4: xj <= 50 000
 c5: xs <= 80 000
 c6: 18xe + 20xj + 25xs <= 3 000 000
 c7: 18xes + 20xjs <= 600 000
 c8: 9xes + 5xem - 8xe >= 0
 c9: 9xjs + 5xjm - 6xj >= 0
Bounds
End
